
n_res = 6;
rcap = [53, 54, 1152, 1233, 1111, 1094];
rtype = [1, 1, 2, 2, 2, 2];
n_tasks = 100;
modes =  [{1, 2, 3, 4, 5, 6}, {7, 8, 9, 10, 11, 12}, {13, 14, 15, 16, 17, 18}, {19, 20, 21, 22, 23, 24}, {25, 26, 27, 28, 29, 30}, {31, 32, 33, 34, 35, 36}, {37, 38, 39, 40, 41, 42}, {43, 44, 45, 46, 47, 48}, {49, 50, 51, 52, 53, 54}, {55, 56, 57, 58, 59, 60}, {61, 62, 63, 64, 65, 66}, {67, 68, 69, 70, 71, 72}, {73, 74, 75, 76, 77, 78}, {79, 80, 81, 82, 83, 84}, {85, 86, 87, 88, 89, 90}, {91, 92, 93, 94, 95, 96}, {97, 98, 99, 100, 101, 102}, {103, 104, 105, 106, 107, 108}, {109, 110, 111, 112, 113, 114}, {115, 116, 117, 118, 119, 120}, {121, 122, 123, 124, 125, 126}, {127, 128, 129, 130, 131, 132}, {133, 134, 135, 136, 137, 138}, {139, 140, 141, 142, 143, 144}, {145, 146, 147, 148, 149, 150}, {151, 152, 153, 154, 155, 156}, {157, 158, 159, 160, 161, 162}, {163, 164, 165, 166, 167, 168}, {169, 170, 171, 172, 173, 174}, {175, 176, 177, 178, 179, 180}, {181, 182, 183, 184, 185, 186}, {187, 188, 189, 190, 191, 192}, {193, 194, 195, 196, 197, 198}, {199, 200, 201, 202, 203, 204}, {205, 206, 207, 208, 209, 210}, {211, 212, 213, 214, 215, 216}, {217, 218, 219, 220, 221, 222}, {223, 224, 225, 226, 227, 228}, {229, 230, 231, 232, 233, 234}, {235, 236, 237, 238, 239, 240}, {241, 242, 243, 244, 245, 246}, {247, 248, 249, 250, 251, 252}, {253, 254, 255, 256, 257, 258}, {259, 260, 261, 262, 263, 264}, {265, 266, 267, 268, 269, 270}, {271, 272, 273, 274, 275, 276}, {277, 278, 279, 280, 281, 282}, {283, 284, 285, 286, 287, 288}, {289, 290, 291, 292, 293, 294}, {295, 296, 297, 298, 299, 300}, {301, 302, 303, 304, 305, 306}, {307, 308, 309, 310, 311, 312}, {313, 314, 315, 316, 317, 318}, {319, 320, 321, 322, 323, 324}, {325, 326, 327, 328, 329, 330}, {331, 332, 333, 334, 335, 336}, {337, 338, 339, 340, 341, 342}, {343, 344, 345, 346, 347, 348}, {349, 350, 351, 352, 353, 354}, {355, 356, 357, 358, 359, 360}, {361, 362, 363, 364, 365, 366}, {367, 368, 369, 370, 371, 372}, {373, 374, 375, 376, 377, 378}, {379, 380, 381, 382, 383, 384}, {385, 386, 387, 388, 389, 390}, {391, 392, 393, 394, 395, 396}, {397, 398, 399, 400, 401, 402}, {403, 404, 405, 406, 407, 408}, {409, 410, 411, 412, 413, 414}, {415, 416, 417, 418, 419, 420}, {421, 422, 423, 424, 425, 426}, {427, 428, 429, 430, 431, 432}, {433, 434, 435, 436, 437, 438}, {439, 440, 441, 442, 443, 444}, {445, 446, 447, 448, 449, 450}, {451, 452, 453, 454, 455, 456}, {457, 458, 459, 460, 461, 462}, {463, 464, 465, 466, 467, 468}, {469, 470, 471, 472, 473, 474}, {475, 476, 477, 478, 479, 480}, {481, 482, 483, 484, 485, 486}, {487, 488, 489, 490, 491, 492}, {493, 494, 495, 496, 497, 498}, {499, 500, 501, 502, 503, 504}, {505, 506, 507, 508, 509, 510}, {511, 512, 513, 514, 515, 516}, {517, 518, 519, 520, 521, 522}, {523, 524, 525, 526, 527, 528}, {529, 530, 531, 532, 533, 534}, {535, 536, 537, 538, 539, 540}, {541, 542, 543, 544, 545, 546}, {547, 548, 549, 550, 551, 552}, {553, 554, 555, 556, 557, 558}, {559, 560, 561, 562, 563, 564}, {565, 566, 567, 568, 569, 570}, {571, 572, 573, 574, 575, 576}, {577, 578, 579, 580, 581, 582}, {583, 584, 585, 586, 587, 588}, {589, 590, 591, 592, 593, 594}, {595, 596, 597, 598, 599, 600}];
succ =  [{23, 21, 17, 16, 15, 5}, {23, 13, 11, 10}, {28, 25, 24, 23, 21, 17, 15, 14}, {23, 21, 17, 5}, {31, 28, 25, 24, 22, 20, 14}, {32, 28, 19, 18, 15}, {31, 25, 24, 22, 20, 14}, {25, 23, 22, 20, 14}, {34, 28, 26, 24, 23, 21, 19}, {31, 24, 22, 20, 14}, {27, 25, 24, 15}, {40, 38, 34, 32, 29, 28, 26, 25, 21, 19}, {40, 38, 34, 32, 28, 22, 18}, {40, 39, 38, 34, 32, 29, 26, 19}, {38, 35, 34, 31, 29, 22, 20}, {42, 40, 39, 38, 37, 35, 34, 33, 32, 31, 28, 25}, {38, 32, 31, 27, 20}, {39, 35, 33, 31, 27, 26, 25}, {42, 41, 37, 36, 35, 33, 27}, {55, 40, 39, 37, 36, 33, 26}, {42, 39, 37, 36, 33, 27}, {43, 41, 39, 37, 36, 33, 30}, {44, 40, 39, 37, 33, 32, 31}, {57, 49, 46, 45, 43, 42, 39, 38, 36, 29}, {49, 48, 46, 43, 36, 30}, {57, 51, 50, 48, 47, 46, 45, 44, 43, 42}, {63, 48, 46, 44, 43, 30}, {57, 55, 50, 49, 48, 47, 36}, {55, 54, 51, 50, 47, 44, 41}, {57, 56, 55, 54, 52, 51, 50, 47}, {63, 57, 54, 51, 50, 47, 45}, {57, 55, 48, 47, 41}, {63, 56, 54, 51, 50, 46, 45}, {64, 63, 54, 51, 47, 43}, {64, 63, 56, 53, 48, 45}, {64, 63, 56, 54, 51, 44}, {64, 61, 56, 49, 48}, {64, 61, 59, 56, 54, 52, 47}, {64, 63, 61, 56, 51, 47}, {67, 64, 63, 61, 59, 53, 52}, {63, 61, 60, 59, 56, 53}, {68, 67, 64, 63, 58, 54, 52}, {68, 61, 58, 56, 52}, {68, 67, 61, 58, 52}, {67, 61, 59, 52}, {68, 64, 58, 52}, {67, 60, 53}, {59, 54, 52}, {60, 53}, {73, 65, 64, 62, 58}, {62, 59, 58}, {70, 65, 62, 60}, {68, 65, 62, 58}, {70, 65, 62, 60}, {73, 68, 61, 58}, {71, 67, 65, 62}, {73, 71, 65, 62}, {79, 77, 76, 74, 71, 70, 69, 66}, {71, 70, 68, 66, 65}, {90, 79, 76, 74, 73, 72, 71, 66}, {90, 80, 77, 76, 72, 71, 66}, {80, 79, 77, 74, 69, 66}, {77, 76, 75, 69, 65}, {78, 76, 75, 72, 71, 69}, {90, 84, 83, 80, 78, 72}, {100, 99, 98, 89, 87, 81, 78, 75}, {100, 89, 82, 80, 79, 73}, {98, 88, 84, 83, 82, 78, 76}, {100, 99, 98, 95, 93, 90, 88, 87, 86, 85, 84, 83}, {98, 90, 84, 83, 80, 78}, {100, 99, 98, 95, 87, 86, 85, 84, 83, 82}, {99, 98, 97, 96, 89, 88, 87, 81}, {95, 93, 88, 87, 86, 85, 84, 83}, {98, 97, 96, 95, 94, 87, 85, 82}, {93, 88, 85, 84, 83}, {100, 94, 93, 92, 89, 85}, {96, 94, 93, 86, 85, 83}, {95, 94, 93, 86, 85}, {98, 95, 93, 87, 85}, {99, 96, 94, 91, 86}, {94, 85, 82}, {93, 92, 91}, {92, 91}, {97, 96}, {91}, {92}, {92}, {94}, {95}, {91}, {}, {}, {}, {}, {}, {}, {}, {}, {}, {}];
n_opt = 600;
dur = [5, 6, 7, 15, 16, 19, 1, 4, 9, 10, 14, 16, 3, 4, 7, 12, 13, 16, 4, 5, 6, 7, 8, 13, 2, 3, 8, 12, 18, 19, 2, 8, 9, 10, 13, 19, 4, 5, 6, 7, 15, 16, 1, 2, 4, 7, 15, 20, 1, 2, 3, 9, 10, 15, 5, 8, 9, 10, 14, 17, 7, 10, 13, 16, 17, 18, 3, 8, 9, 10, 16, 17, 9, 10, 11, 12, 15, 20, 2, 7, 11, 14, 18, 19, 3, 5, 7, 8, 14, 20, 5, 6, 8, 14, 16, 18, 1, 3, 10, 14, 15, 20, 2, 4, 6, 10, 15, 18, 3, 6, 7, 17, 18, 19, 2, 3, 11, 17, 19, 20, 2, 8, 11, 12, 14, 16, 5, 6, 10, 16, 17, 20, 1, 4, 5, 11, 13, 20, 1, 5, 6, 15, 16, 18, 3, 4, 6, 9, 12, 18, 1, 8, 9, 16, 17, 18, 1, 2, 3, 9, 11, 14, 1, 2, 3, 6, 10, 16, 1, 2, 3, 6, 14, 17, 1, 5, 11, 12, 17, 20, 1, 4, 6, 10, 13, 17, 9, 10, 14, 15, 16, 19, 2, 4, 5, 6, 7, 15, 1, 11, 12, 13, 15, 16, 4, 8, 9, 14, 15, 16, 1, 2, 3, 4, 5, 11, 1, 3, 7, 13, 16, 17, 1, 2, 12, 13, 16, 19, 2, 7, 8, 10, 14, 18, 4, 8, 9, 10, 19, 20, 3, 4, 5, 7, 8, 10, 5, 6, 7, 9, 16, 18, 1, 2, 6, 14, 15, 18, 4, 6, 8, 17, 18, 20, 5, 12, 13, 14, 16, 17, 5, 8, 15, 18, 19, 20, 2, 5, 6, 10, 17, 20, 6, 7, 8, 9, 11, 18, 4, 7, 12, 16, 19, 20, 1, 2, 3, 12, 17, 20, 3, 4, 13, 16, 17, 18, 2, 9, 10, 17, 19, 20, 4, 5, 6, 8, 13, 16, 2, 3, 4, 5, 14, 17, 1, 2, 3, 5, 6, 19, 4, 11, 12, 13, 14, 19, 1, 11, 14, 15, 16, 19, 1, 3, 10, 11, 13, 18, 1, 4, 13, 14, 17, 20, 1, 2, 3, 4, 13, 20, 7, 8, 9, 10, 11, 18, 1, 2, 8, 9, 10, 13, 4, 9, 10, 12, 15, 20, 3, 6, 11, 13, 16, 20, 2, 3, 6, 7, 8, 10, 9, 12, 15, 17, 18, 19, 3, 5, 9, 10, 17, 20, 4, 9, 12, 13, 14, 17, 1, 3, 9, 13, 15, 17, 3, 5, 7, 10, 14, 19, 4, 5, 9, 10, 11, 18, 3, 4, 5, 6, 10, 20, 4, 6, 8, 10, 16, 17, 8, 9, 10, 15, 16, 17, 3, 8, 12, 16, 17, 18, 1, 4, 6, 11, 13, 14, 3, 9, 11, 12, 13, 15, 2, 5, 10, 11, 15, 16, 2, 3, 7, 10, 12, 20, 3, 4, 5, 10, 18, 20, 5, 10, 13, 17, 19, 20, 5, 8, 12, 14, 15, 20, 1, 3, 7, 8, 9, 10, 2, 6, 9, 12, 13, 19, 1, 5, 9, 12, 13, 14, 8, 13, 15, 16, 18, 19, 5, 6, 8, 15, 18, 19, 5, 10, 11, 16, 17, 18, 1, 6, 7, 8, 12, 15, 4, 5, 6, 15, 16, 17, 1, 5, 7, 8, 9, 10, 2, 10, 11, 15, 18, 19, 3, 4, 9, 10, 17, 18, 1, 8, 9, 11, 19, 20, 2, 6, 7, 10, 18, 20, 2, 4, 5, 11, 16, 19, 3, 4, 10, 11, 13, 14, 8, 10, 11, 13, 14, 15, 1, 2, 3, 4, 5, 20, 2, 6, 13, 16, 17, 19];
rreq = [|9, 7, 5, 4, 3, 3, 13, 10, 7, 7, 4, 2, 5, 5, 5, 5, 4, 4, 11, 9, 8, 7, 4, 3, 13, 12, 11, 11, 10, 10, 15, 15, 13, 12, 12, 10, 16, 16, 16, 16, 16, 16, 17, 17, 15, 12, 10, 9, 18, 15, 13, 13, 10, 9, 9, 9, 7, 7, 5, 4, 16, 13, 13, 8, 7, 4, 20, 16, 13, 11, 9, 9, 19, 19, 19, 19, 18, 18, 10, 8, 8, 6, 5, 5, 16, 14, 13, 12, 11, 11, 9, 9, 9, 9, 9, 9, 8, 7, 6, 3, 3, 1, 15, 11, 11, 8, 5, 5, 15, 13, 10, 8, 6, 5, 11, 9, 8, 6, 6, 3, 15, 15, 15, 14, 13, 13, 16, 15, 15, 15, 15, 15, 15, 15, 15, 15, 15, 15, 18, 17, 17, 17, 17, 17, 8, 7, 7, 6, 6, 5, 16, 13, 12, 9, 5, 4, 16, 15, 14, 14, 13, 12, 14, 12, 11, 9, 5, 4, 19, 14, 14, 12, 7, 7, 8, 7, 5, 5, 3, 3, 12, 10, 9, 8, 7, 5, 1, 1, 1, 1, 1, 1, 15, 13, 11, 7, 3, 2, 12, 12, 11, 9, 8, 7, 12, 10, 6, 6, 2, 2, 7, 7, 7, 7, 7, 7, 15, 14, 10, 6, 3, 3, 17, 16, 14, 13, 13, 12, 9, 8, 7, 7, 6, 5, 4, 3, 3, 2, 2, 2, 12, 11, 10, 10, 10, 9, 17, 16, 15, 14, 12, 11, 18, 15, 12, 9, 3, 3, 13, 11, 9, 8, 6, 3, 16, 16, 16, 16, 16, 16, 11, 9, 6, 6, 4, 2, 19, 13, 13, 10, 5, 1, 18, 17, 16, 15, 14, 14, 11, 11, 11, 11, 11, 11, 19, 16, 14, 12, 9, 9, 9, 9, 9, 8, 7, 7, 14, 14, 13, 12, 12, 11, 6, 6, 6, 6, 6, 6, 7, 6, 6, 6, 6, 6, 3, 2, 2, 2, 2, 2, 6, 6, 5, 4, 3, 3, 20, 19, 19, 19, 18, 18, 14, 13, 12, 12, 9, 9, 18, 17, 17, 16, 15, 15, 19, 18, 18, 17, 17, 16, 6, 6, 6, 6, 6, 6, 12, 11, 11, 11, 11, 11, 14, 14, 14, 14, 14, 14, 7, 6, 5, 5, 4, 3, 12, 12, 11, 11, 10, 10, 12, 10, 8, 7, 6, 5, 4, 3, 2, 2, 1, 1, 4, 3, 3, 2, 1, 1, 14, 13, 13, 12, 12, 12, 13, 12, 12, 11, 11, 11, 14, 12, 10, 6, 6, 3, 19, 18, 18, 17, 17, 16, 12, 10, 9, 7, 5, 2, 11, 11, 11, 10, 10, 10, 12, 11, 10, 8, 6, 2, 13, 13, 10, 8, 4, 3, 14, 13, 11, 10, 6, 5, 14, 14, 14, 14, 14, 14, 19, 18, 18, 18, 18, 18, 17, 15, 15, 14, 11, 11, 15, 13, 12, 10, 8, 7, 16, 15, 15, 15, 15, 15, 20, 18, 18, 18, 16, 16, 17, 16, 11, 11, 8, 4, 11, 11, 10, 9, 8, 6, 15, 15, 15, 14, 14, 13, 2, 2, 2, 1, 1, 1, 17, 17, 15, 14, 12, 10, 15, 12, 9, 8, 4, 1, 15, 14, 14, 13, 10, 9, 7, 6, 6, 4, 3, 2, 13, 13, 10, 7, 5, 2, 7, 7, 6, 5, 3, 2, 6, 6, 4, 4, 3, 1, 18, 17, 15, 13, 13, 11, 13, 13, 13, 13, 13, 13, 17, 14, 12, 10, 10, 8, 10, 9, 8, 8, 7, 7, 4, 4, 4, 4, 4, 4, 13, 13, 12, 12, 12, 11
 |14, 11, 9, 8, 4, 4, 7, 7, 7, 7, 7, 7, 13, 12, 12, 12, 11, 10, 18, 17, 17, 16, 16, 15, 13, 12, 11, 10, 9, 6, 11, 8, 7, 5, 4, 2, 17, 17, 13, 12, 11, 7, 17, 17, 17, 17, 17, 17, 19, 15, 11, 11, 8, 4, 16, 13, 11, 9, 4, 4, 15, 13, 12, 11, 11, 9, 11, 10, 9, 7, 6, 6, 6, 6, 5, 4, 4, 3, 18, 16, 13, 11, 11, 8, 17, 17, 16, 15, 15, 14, 16, 14, 14, 13, 12, 10, 14, 13, 12, 10, 10, 7, 8, 7, 6, 5, 4, 3, 20, 19, 17, 16, 15, 15, 9, 9, 9, 9, 8, 8, 3, 3, 3, 3, 3, 3, 10, 10, 9, 8, 6, 6, 4, 4, 4, 4, 3, 3, 9, 9, 9, 9, 9, 9, 13, 13, 13, 13, 13, 13, 18, 16, 12, 12, 9, 7, 18, 18, 16, 15, 12, 12, 6, 6, 4, 3, 2, 1, 6, 6, 6, 6, 6, 6, 17, 15, 13, 8, 7, 3, 7, 7, 6, 6, 6, 5, 16, 14, 10, 7, 6, 5, 18, 17, 17, 17, 17, 17, 3, 3, 3, 2, 2, 2, 16, 11, 11, 7, 4, 2, 17, 17, 16, 16, 15, 15, 20, 16, 14, 11, 6, 3, 14, 13, 13, 13, 13, 13, 11, 11, 10, 10, 9, 8, 12, 12, 12, 12, 12, 12, 12, 9, 8, 6, 6, 3, 17, 14, 14, 13, 10, 10, 10, 9, 8, 7, 5, 5, 4, 3, 3, 2, 2, 1, 14, 11, 11, 8, 6, 3, 6, 5, 5, 5, 4, 4, 11, 11, 10, 8, 8, 7, 8, 8, 8, 8, 8, 8, 10, 9, 7, 6, 5, 5, 16, 15, 11, 10, 7, 7, 17, 17, 16, 16, 15, 15, 3, 3, 2, 2, 1, 1, 18, 14, 13, 11, 9, 6, 7, 6, 5, 5, 5, 4, 17, 15, 12, 9, 7, 6, 9, 7, 6, 5, 4, 4, 12, 10, 10, 10, 9, 8, 17, 16, 16, 16, 16, 16, 2, 1, 1, 1, 1, 1, 17, 15, 14, 14, 13, 11, 18, 15, 14, 11, 8, 7, 19, 17, 17, 15, 14, 14, 15, 14, 14, 14, 13, 13, 20, 14, 13, 11, 9, 5, 20, 18, 17, 16, 16, 15, 12, 12, 12, 12, 12, 12, 6, 5, 5, 4, 4, 3, 14, 11, 9, 9, 6, 5, 17, 16, 16, 16, 16, 16, 4, 4, 4, 4, 4, 4, 12, 10, 8, 8, 6, 6, 3, 3, 3, 2, 2, 2, 18, 17, 16, 16, 16, 15, 17, 13, 12, 9, 8, 5, 20, 16, 13, 12, 9, 7, 7, 7, 6, 6, 6, 5, 14, 12, 11, 8, 6, 3, 18, 18, 15, 13, 12, 11, 5, 4, 3, 3, 2, 2, 12, 10, 8, 7, 6, 4, 9, 9, 9, 9, 9, 9, 11, 10, 9, 8, 7, 6, 18, 14, 13, 9, 9, 6, 2, 1, 1, 1, 1, 1, 2, 1, 1, 1, 1, 1, 11, 10, 9, 6, 4, 3, 15, 15, 15, 15, 15, 15, 15, 14, 10, 9, 4, 1, 16, 15, 15, 14, 14, 14, 14, 10, 8, 7, 5, 2, 9, 8, 7, 5, 3, 3, 6, 6, 4, 3, 3, 2, 10, 9, 9, 9, 9, 9, 20, 17, 14, 10, 7, 6, 18, 18, 18, 18, 17, 17, 8, 8, 7, 7, 7, 6, 17, 16, 15, 13, 9, 7, 17, 15, 14, 13, 13, 12, 7, 7, 6, 5, 5, 4, 13, 11, 10, 8, 6, 4
 |16, 15, 12, 11, 8, 7, 14, 11, 10, 10, 6, 5, 7, 6, 6, 6, 6, 6, 13, 13, 10, 7, 5, 3, 12, 9, 9, 6, 5, 4, 16, 15, 14, 12, 9, 5, 17, 13, 11, 9, 6, 4, 15, 12, 11, 11, 9, 8, 9, 9, 9, 8, 8, 7, 18, 14, 12, 11, 7, 5, 19, 16, 16, 14, 12, 11, 14, 11, 11, 9, 8, 7, 15, 12, 10, 8, 5, 4, 20, 19, 19, 19, 18, 18, 7, 6, 6, 6, 4, 4, 14, 14, 14, 14, 14, 14, 14, 14, 13, 11, 11, 10, 6, 5, 3, 3, 2, 1, 13, 13, 12, 10, 9, 9, 5, 4, 3, 3, 2, 1, 20, 19, 19, 18, 18, 17, 4, 4, 4, 3, 3, 2, 20, 18, 18, 17, 16, 16, 13, 10, 10, 7, 6, 6, 15, 15, 14, 14, 14, 13, 18, 18, 17, 15, 13, 12, 8, 7, 7, 7, 6, 6, 14, 13, 12, 11, 9, 6, 19, 14, 13, 9, 7, 6, 16, 16, 14, 14, 12, 12, 18, 17, 15, 13, 9, 9, 10, 9, 9, 9, 9, 9, 16, 12, 12, 7, 4, 2, 10, 10, 9, 9, 9, 8, 11, 11, 8, 7, 4, 3, 19, 18, 17, 17, 15, 15, 7, 6, 6, 5, 5, 4, 18, 18, 14, 12, 12, 8, 18, 17, 14, 13, 10, 7, 14, 13, 13, 13, 12, 12, 15, 13, 11, 11, 8, 6, 2, 2, 2, 1, 1, 1, 5, 4, 4, 3, 2, 2, 3, 3, 3, 3, 3, 3, 13, 13, 12, 11, 9, 9, 8, 7, 6, 5, 3, 3, 13, 13, 9, 8, 6, 1, 11, 10, 9, 8, 6, 5, 9, 8, 6, 6, 4, 4, 11, 10, 9, 9, 8, 8, 12, 11, 11, 11, 10, 10, 19, 16, 10, 9, 5, 4, 14, 14, 12, 8, 6, 4, 17, 17, 16, 14, 14, 12, 19, 19, 19, 18, 18, 18, 15, 12, 12, 8, 7, 5, 9, 7, 7, 6, 5, 5, 7, 5, 5, 5, 4, 3, 17, 14, 12, 10, 5, 3, 19, 18, 18, 17, 16, 15, 15, 12, 11, 8, 5, 5, 13, 11, 9, 8, 6, 4, 13, 11, 11, 9, 9, 7, 13, 13, 13, 13, 12, 12, 4, 4, 4, 4, 4, 4, 18, 18, 18, 17, 16, 16, 20, 17, 14, 12, 12, 10, 16, 12, 11, 9, 6, 2, 14, 13, 13, 13, 13, 13, 13, 12, 11, 11, 10, 10, 14, 11, 9, 6, 4, 4, 9, 8, 8, 8, 8, 8, 17, 17, 15, 13, 11, 9, 9, 8, 8, 8, 8, 8, 16, 15, 12, 11, 11, 8, 10, 9, 8, 7, 5, 4, 12, 11, 9, 5, 4, 2, 18, 17, 16, 15, 14, 13, 11, 9, 8, 8, 6, 6, 14, 11, 10, 9, 5, 4, 11, 10, 8, 7, 6, 6, 15, 13, 12, 9, 9, 6, 15, 13, 13, 12, 11, 10, 18, 18, 18, 17, 17, 17, 16, 15, 14, 9, 9, 7, 14, 13, 12, 12, 11, 11, 8, 7, 6, 6, 5, 5, 18, 18, 15, 15, 14, 12, 10, 9, 7, 5, 4, 3, 14, 12, 9, 7, 5, 2, 8, 7, 7, 6, 6, 5, 5, 5, 5, 4, 3, 3, 14, 13, 13, 12, 12, 12, 18, 16, 14, 10, 9, 6, 16, 15, 11, 8, 5, 3, 3, 3, 3, 3, 3, 3, 2, 2, 2, 2, 2, 2, 12, 10, 10, 8, 8, 7, 18, 16, 14, 14, 11, 11, 6, 5, 4, 4, 2, 1
 |13, 12, 12, 12, 12, 12, 16, 16, 16, 16, 16, 16, 8, 8, 6, 6, 4, 4, 15, 14, 11, 9, 9, 7, 10, 9, 8, 7, 6, 5, 12, 11, 9, 9, 7, 6, 7, 6, 6, 5, 5, 4, 18, 17, 16, 16, 16, 15, 15, 15, 15, 14, 14, 13, 10, 10, 10, 10, 10, 10, 17, 16, 13, 13, 9, 7, 14, 14, 11, 10, 9, 7, 11, 11, 11, 11, 11, 11, 20, 19, 19, 19, 19, 19, 17, 14, 12, 11, 10, 7, 15, 13, 12, 11, 9, 9, 1, 1, 1, 1, 1, 1, 3, 2, 2, 1, 1, 1, 10, 10, 10, 10, 10, 10, 18, 17, 16, 14, 12, 11, 18, 16, 15, 15, 14, 13, 19, 17, 17, 15, 15, 13, 17, 13, 10, 7, 6, 2, 12, 11, 8, 6, 3, 3, 18, 18, 18, 18, 18, 18, 11, 11, 11, 11, 11, 11, 16, 13, 11, 10, 7, 5, 18, 17, 17, 14, 14, 12, 11, 10, 8, 7, 6, 5, 14, 13, 10, 7, 5, 5, 15, 14, 12, 12, 9, 8, 8, 8, 8, 8, 8, 8, 19, 15, 11, 7, 5, 4, 17, 17, 14, 14, 11, 11, 10, 9, 9, 9, 7, 7, 19, 13, 12, 8, 5, 5, 17, 14, 12, 12, 10, 9, 10, 9, 9, 8, 7, 7, 17, 16, 16, 16, 15, 15, 19, 15, 15, 13, 10, 9, 16, 14, 12, 10, 7, 6, 20, 17, 16, 15, 15, 13, 19, 16, 14, 9, 8, 4, 17, 15, 15, 15, 14, 13, 14, 12, 11, 10, 8, 8, 13, 12, 12, 11, 11, 10, 19, 18, 16, 15, 14, 14, 9, 8, 8, 6, 5, 5, 13, 11, 8, 6, 5, 3, 18, 14, 13, 10, 6, 5, 13, 12, 12, 10, 9, 9, 18, 18, 17, 14, 14, 11, 8, 8, 8, 8, 8, 8, 7, 7, 5, 5, 4, 3, 16, 15, 14, 13, 11, 10, 7, 6, 6, 6, 5, 5, 11, 10, 10, 10, 10, 10, 10, 9, 8, 7, 6, 5, 12, 8, 8, 6, 3, 3, 20, 18, 16, 14, 13, 12, 6, 5, 4, 4, 4, 3, 15, 14, 13, 11, 9, 7, 16, 13, 10, 9, 7, 3, 15, 12, 10, 8, 8, 6, 19, 16, 14, 9, 9, 6, 2, 1, 1, 1, 1, 1, 10, 8, 6, 6, 4, 4, 18, 16, 15, 14, 14, 12, 19, 18, 16, 14, 13, 12, 15, 14, 13, 10, 8, 7, 13, 13, 13, 12, 12, 12, 16, 15, 15, 15, 15, 15, 19, 19, 19, 19, 19, 19, 2, 1, 1, 1, 1, 1, 16, 15, 11, 11, 7, 6, 17, 17, 15, 14, 13, 12, 9, 8, 7, 6, 4, 3, 18, 16, 15, 15, 13, 12, 11, 10, 10, 10, 10, 10, 12, 9, 7, 5, 3, 2, 18, 14, 13, 12, 10, 7, 15, 13, 12, 8, 7, 6, 17, 16, 14, 10, 10, 6, 14, 12, 11, 9, 7, 5, 16, 16, 15, 15, 15, 14, 19, 17, 14, 14, 13, 11, 14, 13, 13, 12, 11, 11, 17, 13, 12, 8, 5, 3, 9, 9, 9, 9, 9, 9, 18, 17, 16, 16, 14, 14, 7, 6, 5, 4, 4, 3, 4, 3, 2, 2, 1, 1, 12, 10, 8, 8, 7, 6, 7, 6, 6, 5, 5, 4, 4, 3, 3, 3, 3, 3, 13, 13, 13, 13, 13, 13, 20, 17, 14, 12, 10, 10, 19, 17, 15, 15, 13, 12, 16, 15, 15, 14, 12, 12, 12, 10, 9, 7, 6, 5
 |14, 14, 12, 11, 10, 10, 5, 4, 4, 4, 4, 4, 13, 12, 9, 9, 7, 5, 19, 16, 15, 13, 11, 10, 3, 2, 2, 2, 1, 1, 16, 14, 14, 13, 12, 12, 18, 17, 16, 15, 14, 14, 17, 16, 16, 16, 15, 15, 11, 10, 10, 10, 10, 10, 15, 14, 11, 9, 8, 5, 16, 16, 16, 16, 15, 15, 18, 15, 13, 11, 5, 5, 9, 7, 7, 6, 4, 2, 8, 7, 6, 6, 6, 5, 18, 16, 15, 14, 11, 9, 6, 6, 6, 6, 6, 6, 14, 13, 13, 12, 12, 12, 14, 12, 12, 8, 5, 2, 19, 18, 16, 15, 15, 14, 19, 18, 17, 17, 16, 16, 10, 9, 7, 7, 5, 5, 12, 11, 10, 9, 8, 7, 12, 12, 11, 11, 10, 10, 17, 16, 14, 13, 11, 9, 17, 15, 10, 10, 6, 3, 12, 12, 12, 12, 12, 12, 13, 11, 9, 6, 6, 3, 17, 12, 10, 7, 6, 4, 15, 14, 13, 12, 12, 10, 6, 6, 6, 6, 6, 6, 19, 18, 17, 17, 15, 15, 17, 17, 13, 12, 7, 7, 17, 16, 16, 15, 15, 14, 9, 8, 7, 7, 6, 5, 12, 11, 7, 6, 4, 3, 18, 17, 17, 17, 16, 15, 5, 5, 5, 4, 3, 3, 11, 11, 11, 10, 9, 9, 3, 2, 2, 2, 2, 2, 13, 12, 12, 11, 11, 11, 13, 13, 13, 13, 12, 12, 18, 17, 16, 15, 13, 11, 10, 8, 7, 6, 4, 1, 9, 6, 6, 5, 2, 2, 15, 15, 13, 13, 11, 11, 10, 10, 10, 9, 9, 9, 16, 14, 13, 12, 11, 9, 15, 13, 11, 9, 7, 7, 7, 6, 6, 5, 5, 5, 5, 4, 4, 4, 4, 4, 14, 12, 11, 9, 5, 3, 10, 10, 8, 8, 6, 6, 17, 16, 16, 15, 15, 15, 11, 10, 10, 7, 7, 5, 8, 8, 8, 8, 7, 7, 14, 14, 14, 14, 14, 14, 9, 7, 6, 6, 5, 4, 20, 19, 18, 17, 17, 16, 16, 16, 15, 15, 15, 14, 1, 1, 1, 1, 1, 1, 14, 13, 10, 8, 6, 5, 7, 7, 6, 6, 4, 4, 14, 12, 8, 6, 6, 4, 17, 12, 9, 7, 5, 3, 9, 8, 7, 7, 6, 5, 13, 11, 8, 8, 6, 4, 14, 13, 10, 9, 5, 4, 16, 12, 10, 10, 7, 6, 8, 8, 8, 7, 6, 6, 15, 15, 15, 15, 15, 15, 12, 12, 10, 9, 8, 8, 13, 11, 9, 8, 6, 2, 8, 6, 5, 5, 4, 2, 13, 11, 11, 11, 9, 9, 15, 11, 10, 7, 5, 5, 9, 7, 6, 6, 4, 3, 10, 10, 9, 9, 8, 7, 18, 15, 14, 12, 12, 9, 8, 5, 4, 4, 3, 2, 11, 11, 10, 9, 8, 6, 6, 5, 5, 5, 4, 4, 19, 17, 13, 13, 11, 7, 3, 3, 3, 3, 3, 3, 10, 9, 8, 7, 7, 6, 9, 6, 6, 3, 3, 1, 5, 5, 5, 5, 5, 5, 11, 11, 10, 10, 9, 9, 15, 13, 13, 12, 11, 11, 8, 7, 7, 7, 6, 6, 12, 10, 9, 9, 7, 7, 13, 13, 11, 9, 5, 5, 5, 5, 5, 5, 4, 4, 16, 14, 12, 12, 10, 8, 20, 19, 19, 19, 19, 19, 15, 14, 14, 14, 13, 13, 11, 10, 9, 9, 8, 7, 14, 12, 12, 9, 7, 4, 17, 17, 13, 12, 9, 9, 12, 12, 10, 9, 9, 8, 9, 8, 7, 6, 4, 4
 |2, 1, 1, 1, 1, 1, 16, 12, 11, 10, 9, 7, 16, 16, 15, 14, 14, 13, 14, 12, 12, 12, 11, 10, 10, 8, 7, 6, 3, 3, 10, 9, 7, 6, 5, 4, 19, 19, 17, 16, 16, 15, 10, 9, 7, 6, 4, 2, 11, 10, 10, 9, 7, 6, 18, 15, 12, 7, 5, 2, 18, 16, 16, 16, 15, 14, 5, 5, 4, 3, 1, 1, 16, 16, 14, 14, 12, 12, 9, 7, 6, 6, 4, 3, 3, 3, 3, 2, 1, 1, 12, 10, 9, 8, 7, 7, 17, 15, 13, 12, 10, 9, 12, 10, 10, 10, 9, 8, 5, 5, 4, 4, 4, 3, 18, 18, 17, 17, 15, 15, 15, 15, 15, 14, 14, 14, 4, 3, 3, 3, 3, 3, 7, 6, 6, 3, 2, 2, 10, 9, 8, 8, 8, 7, 18, 18, 18, 18, 17, 17, 15, 11, 10, 9, 6, 2, 18, 15, 13, 13, 11, 7, 16, 15, 15, 15, 15, 15, 3, 3, 3, 3, 3, 3, 12, 12, 12, 12, 12, 12, 9, 9, 9, 9, 8, 8, 7, 6, 6, 5, 5, 4, 19, 16, 15, 13, 12, 8, 9, 8, 7, 6, 4, 3, 11, 11, 9, 7, 3, 2, 19, 15, 14, 12, 9, 6, 12, 9, 7, 7, 3, 3, 13, 12, 11, 10, 9, 9, 4, 3, 3, 3, 3, 3, 11, 11, 10, 9, 8, 8, 11, 11, 11, 10, 9, 9, 11, 10, 10, 10, 10, 10, 7, 7, 7, 7, 6, 6, 12, 12, 11, 11, 9, 9, 12, 11, 10, 9, 7, 6, 12, 11, 10, 8, 7, 4, 12, 12, 11, 11, 10, 9, 14, 14, 14, 14, 13, 13, 4, 4, 4, 4, 4, 4, 17, 15, 13, 11, 11, 9, 17, 16, 14, 13, 9, 9, 13, 12, 11, 10, 9, 8, 18, 16, 16, 14, 12, 10, 16, 15, 15, 15, 15, 15, 18, 14, 13, 11, 9, 6, 10, 10, 10, 10, 10, 10, 12, 10, 8, 7, 4, 4, 18, 17, 17, 16, 14, 14, 6, 5, 4, 4, 2, 2, 20, 17, 14, 12, 8, 6, 17, 17, 17, 16, 15, 15, 13, 10, 9, 5, 3, 2, 16, 15, 14, 13, 12, 11, 8, 6, 6, 5, 4, 4, 10, 8, 8, 6, 6, 5, 16, 15, 10, 8, 5, 4, 3, 3, 3, 3, 3, 3, 16, 15, 12, 9, 6, 4, 1, 1, 1, 1, 1, 1, 19, 19, 19, 19, 19, 19, 14, 13, 12, 11, 9, 7, 12, 11, 9, 8, 7, 6, 18, 16, 15, 11, 9, 8, 17, 17, 17, 17, 17, 17, 14, 14, 14, 14, 14, 14, 4, 4, 4, 4, 4, 4, 17, 15, 14, 13, 12, 12, 7, 6, 5, 3, 2, 2, 10, 10, 10, 9, 10, 10, 10, 9, 8, 6, 5, 4, 9, 8, 7, 5, 4, 4, 6, 6, 6, 6, 6, 6, 17, 16, 15, 15, 15, 14, 16, 15, 13, 13, 12, 11, 8, 7, 6, 5, 3, 3, 19, 18, 18, 17, 16, 16, 20, 16, 15, 12, 10, 9, 19, 15, 11, 7, 7, 1, 12, 12, 9, 9, 7, 5, 8, 7, 7, 4, 4, 2, 15, 11, 9, 5, 3, 3, 7, 6, 4, 3, 3, 1, 13, 11, 8, 7, 5, 2, 10, 10, 10, 10, 10, 10, 16, 13, 12, 9, 8, 6, 4, 3, 3, 2, 2, 1, 11, 11, 11, 11, 11, 11, 10, 9, 8, 6, 3, 2, 14, 13, 11, 8, 6, 5, 15, 12, 11, 9, 7, 7|];